p edge 90 964 73
e 1 6
e 1 7
e 1 11
e 1 18
e 1 19
e 1 24
e 1 25
e 1 34
e 1 35
e 1 37
e 1 41
e 1 45
e 1 46
e 1 51
e 1 53
e 1 54
e 1 63
e 1 68
e 1 69
e 1 82
e 1 86
e 1 87
e 1 89
e 2 3
e 2 6
e 2 15
e 2 19
e 2 20
e 2 22
e 2 24
e 2 25
e 2 31
e 2 33
e 2 39
e 2 40
e 2 46
e 2 50
e 2 51
e 2 71
e 2 83
e 3 14
e 3 15
e 3 16
e 3 26
e 3 28
e 3 29
e 3 34
e 3 38
e 3 41
e 3 46
e 3 50
e 3 56
e 3 58
e 3 60
e 3 62
e 3 65
e 3 69
e 3 75
e 3 85
e 3 87
e 3 88
e 3 90
e 4 7
e 4 10
e 4 14
e 4 18
e 4 20
e 4 22
e 4 27
e 4 29
e 4 40
e 4 41
e 4 42
e 4 58
e 4 68
e 4 70
e 4 78
e 4 81
e 4 83
e 5 7
e 5 8
e 5 11
e 5 21
e 5 26
e 5 32
e 5 34
e 5 35
e 5 36
e 5 44
e 5 46
e 5 48
e 5 52
e 5 53
e 5 56
e 5 60
e 5 68
e 5 70
e 5 76
e 5 85
e 5 86
e 5 90
e 6 11
e 6 13
e 6 15
e 6 16
e 6 17
e 6 22
e 6 29
e 6 32
e 6 35
e 6 43
e 6 44
e 6 46
e 6 53
e 6 56
e 6 59
e 6 60
e 6 61
e 6 65
e 6 67
e 6 69
e 6 71
e 6 73
e 6 78
e 6 80
e 6 82
e 6 84
e 6 85
e 6 87
e 7 10
e 7 19
e 7 21
e 7 26
e 7 36
e 7 55
e 7 56
e 7 60
e 7 70
e 7 74
e 7 85
e 7 87
e 7 88
e 8 15
e 8 16
e 8 21
e 8 22
e 8 23
e 8 25
e 8 31
e 8 45
e 8 46
e 8 49
e 8 52
e 8 62
e 8 64
e 8 72
e 8 75
e 8 78
e 8 81
e 8 88
e 8 90
e 9 13
e 9 17
e 9 19
e 9 27
e 9 33
e 9 35
e 9 36
e 9 39
e 9 44
e 9 45
e 9 46
e 9 52
e 9 55
e 9 58
e 9 60
e 9 65
e 9 71
e 9 73
e 9 77
e 9 78
e 9 90
e 10 17
e 10 18
e 10 25
e 10 26
e 10 27
e 10 29
e 10 31
e 10 33
e 10 38
e 10 39
e 10 41
e 10 44
e 10 46
e 10 61
e 10 70
e 10 71
e 10 74
e 10 78
e 10 83
e 10 85
e 10 88
e 11 12
e 11 13
e 11 16
e 11 21
e 11 23
e 11 25
e 11 26
e 11 36
e 11 38
e 11 41
e 11 45
e 11 54
e 11 63
e 11 64
e 11 67
e 11 74
e 11 81
e 11 84
e 11 85
e 11 88
e 11 89
e 11 90
e 12 22
e 12 24
e 12 25
e 12 32
e 12 33
e 12 36
e 12 37
e 12 48
e 12 66
e 12 69
e 12 71
e 12 76
e 12 77
e 12 82
e 12 84
e 12 87
e 12 89
e 13 16
e 13 18
e 13 25
e 13 26
e 13 28
e 13 29
e 13 32
e 13 34
e 13 35
e 13 38
e 13 43
e 13 46
e 13 48
e 13 52
e 13 53
e 13 57
e 13 61
e 13 70
e 13 75
e 13 76
e 13 87
e 13 89
e 14 17
e 14 23
e 14 26
e 14 33
e 14 41
e 14 45
e 14 46
e 14 48
e 14 49
e 14 54
e 14 56
e 14 63
e 14 64
e 14 71
e 14 78
e 14 80
e 14 85
e 14 89
e 15 19
e 15 21
e 15 30
e 15 32
e 15 42
e 15 46
e 15 47
e 15 52
e 15 54
e 15 55
e 15 61
e 15 63
e 15 64
e 15 69
e 15 71
e 15 72
e 15 73
e 15 74
e 15 76
e 15 80
e 16 19
e 16 28
e 16 31
e 16 32
e 16 35
e 16 42
e 16 44
e 16 52
e 16 53
e 16 54
e 16 56
e 16 63
e 16 69
e 16 70
e 16 71
e 16 73
e 16 75
e 16 76
e 16 81
e 16 82
e 16 84
e 17 18
e 17 19
e 17 21
e 17 24
e 17 36
e 17 41
e 17 42
e 17 55
e 17 71
e 17 89
e 18 24
e 18 29
e 18 34
e 18 39
e 18 42
e 18 55
e 18 61
e 18 64
e 18 65
e 18 66
e 18 67
e 18 69
e 18 80
e 19 26
e 19 28
e 19 30
e 19 38
e 19 40
e 19 43
e 19 45
e 19 62
e 19 75
e 19 77
e 19 79
e 19 81
e 19 89
e 19 90
e 20 23
e 20 30
e 20 41
e 20 43
e 20 45
e 20 46
e 20 47
e 20 57
e 20 61
e 20 63
e 20 76
e 20 78
e 20 83
e 20 85
e 20 88
e 21 22
e 21 30
e 21 35
e 21 37
e 21 41
e 21 43
e 21 52
e 21 56
e 21 58
e 21 66
e 21 69
e 21 75
e 21 79
e 21 81
e 21 85
e 21 86
e 21 87
e 21 88
e 22 23
e 22 33
e 22 34
e 22 39
e 22 40
e 22 43
e 22 44
e 22 47
e 22 50
e 22 52
e 22 58
e 22 64
e 22 69
e 22 70
e 22 71
e 22 74
e 22 75
e 22 77
e 22 78
e 22 80
e 23 33
e 23 35
e 23 37
e 23 42
e 23 43
e 23 45
e 23 53
e 23 54
e 23 56
e 23 64
e 23 67
e 23 68
e 23 69
e 23 72
e 23 80
e 23 81
e 24 25
e 24 28
e 24 31
e 24 36
e 24 40
e 24 44
e 24 54
e 24 61
e 24 65
e 24 71
e 24 73
e 24 74
e 24 81
e 24 82
e 24 86
e 24 88
e 25 26
e 25 27
e 25 32
e 25 33
e 25 42
e 25 44
e 25 48
e 25 50
e 25 54
e 25 56
e 25 57
e 25 61
e 25 64
e 25 65
e 25 71
e 25 82
e 25 88
e 26 28
e 26 33
e 26 34
e 26 38
e 26 46
e 26 47
e 26 48
e 26 61
e 26 62
e 26 67
e 26 70
e 26 74
e 26 75
e 26 77
e 26 80
e 26 90
e 27 35
e 27 47
e 27 51
e 27 53
e 27 54
e 27 57
e 27 60
e 27 61
e 27 72
e 27 74
e 27 83
e 27 89
e 27 90
e 28 30
e 28 31
e 28 32
e 28 49
e 28 50
e 28 54
e 28 57
e 28 60
e 28 63
e 28 68
e 28 70
e 28 79
e 28 81
e 28 84
e 28 89
e 28 90
e 29 32
e 29 36
e 29 49
e 29 53
e 29 54
e 29 55
e 29 57
e 29 60
e 29 68
e 29 75
e 29 80
e 30 32
e 30 39
e 30 50
e 30 51
e 30 52
e 30 56
e 30 59
e 30 60
e 30 66
e 30 70
e 30 71
e 30 74
e 30 75
e 30 77
e 30 79
e 30 83
e 30 84
e 30 87
e 30 88
e 30 89
e 30 90
e 31 34
e 31 35
e 31 36
e 31 42
e 31 43
e 31 44
e 31 49
e 31 52
e 31 53
e 31 58
e 31 61
e 31 65
e 31 66
e 31 86
e 32 33
e 32 34
e 32 37
e 32 41
e 32 45
e 32 48
e 32 53
e 32 54
e 32 56
e 32 62
e 32 67
e 32 76
e 32 77
e 32 78
e 32 79
e 32 80
e 32 81
e 32 87
e 33 46
e 33 52
e 33 55
e 33 57
e 33 61
e 33 68
e 33 70
e 33 72
e 33 74
e 33 76
e 33 77
e 33 84
e 33 85
e 33 86
e 34 37
e 34 38
e 34 41
e 34 54
e 34 63
e 34 64
e 34 71
e 34 79
e 34 81
e 34 89
e 35 38
e 35 39
e 35 40
e 35 41
e 35 43
e 35 47
e 35 52
e 35 66
e 35 67
e 35 69
e 35 75
e 35 78
e 35 80
e 35 81
e 35 84
e 35 86
e 36 37
e 36 43
e 36 44
e 36 46
e 36 47
e 36 56
e 36 61
e 36 62
e 36 70
e 36 73
e 36 77
e 37 38
e 37 41
e 37 43
e 37 48
e 37 55
e 37 60
e 37 63
e 37 65
e 37 66
e 37 70
e 37 73
e 37 76
e 37 78
e 37 79
e 37 82
e 37 83
e 37 85
e 38 44
e 38 46
e 38 54
e 38 57
e 38 65
e 38 69
e 38 71
e 38 76
e 38 81
e 38 85
e 38 88
e 39 43
e 39 52
e 39 56
e 39 57
e 39 59
e 39 63
e 39 64
e 39 67
e 39 72
e 39 76
e 39 78
e 39 81
e 39 88
e 40 41
e 40 50
e 40 51
e 40 54
e 40 56
e 40 57
e 40 58
e 40 60
e 40 61
e 40 69
e 40 74
e 40 87
e 40 89
e 40 90
e 41 42
e 41 44
e 41 46
e 41 52
e 41 53
e 41 55
e 41 59
e 41 61
e 41 62
e 41 73
e 41 76
e 41 82
e 41 87
e 41 89
e 42 43
e 42 46
e 42 59
e 42 64
e 42 65
e 42 68
e 42 73
e 42 79
e 42 81
e 42 83
e 42 84
e 42 86
e 42 87
e 43 51
e 43 55
e 43 56
e 43 58
e 43 60
e 43 63
e 43 64
e 43 71
e 43 75
e 43 89
e 44 57
e 44 62
e 44 63
e 44 64
e 44 68
e 44 87
e 44 88
e 44 90
e 45 48
e 45 52
e 45 59
e 45 61
e 45 62
e 45 63
e 45 66
e 45 77
e 45 88
e 46 48
e 46 49
e 46 51
e 46 52
e 46 56
e 46 58
e 46 67
e 46 72
e 46 82
e 46 85
e 47 49
e 47 50
e 47 53
e 47 67
e 47 72
e 47 79
e 48 55
e 48 56
e 48 58
e 48 60
e 48 70
e 48 73
e 48 76
e 48 78
e 48 83
e 48 84
e 48 86
e 48 87
e 49 50
e 49 51
e 49 59
e 49 62
e 49 65
e 49 66
e 49 71
e 49 86
e 49 87
e 49 90
e 50 53
e 50 55
e 50 60
e 50 66
e 50 70
e 50 74
e 50 76
e 50 90
e 51 58
e 51 73
e 51 76
e 51 82
e 51 87
e 52 60
e 52 62
e 52 63
e 52 74
e 52 77
e 52 79
e 52 81
e 53 56
e 53 58
e 53 59
e 53 64
e 53 66
e 53 71
e 53 75
e 53 83
e 54 56
e 54 59
e 54 60
e 54 62
e 54 68
e 54 70
e 54 73
e 54 74
e 54 77
e 54 78
e 54 80
e 54 83
e 54 89
e 55 56
e 55 65
e 55 67
e 55 72
e 55 74
e 55 80
e 55 81
e 55 82
e 55 84
e 55 85
e 55 87
e 55 88
e 55 90
e 56 70
e 56 73
e 56 74
e 56 77
e 56 83
e 56 84
e 56 86
e 57 71
e 57 75
e 57 76
e 57 77
e 57 78
e 57 87
e 58 60
e 58 63
e 58 65
e 58 68
e 58 69
e 58 73
e 58 83
e 58 84
e 58 87
e 59 63
e 59 78
e 59 81
e 60 65
e 60 66
e 60 68
e 60 71
e 60 75
e 60 81
e 60 85
e 60 89
e 61 62
e 61 73
e 61 81
e 61 83
e 61 84
e 62 63
e 62 65
e 62 66
e 62 68
e 62 69
e 62 71
e 62 72
e 62 80
e 62 82
e 62 84
e 62 85
e 62 86
e 62 87
e 62 89
e 63 67
e 63 68
e 63 69
e 63 76
e 63 78
e 63 81
e 63 89
e 64 66
e 64 70
e 64 80
e 64 85
e 65 66
e 65 71
e 65 79
e 65 82
e 65 86
e 65 88
e 66 67
e 66 71
e 66 74
e 66 79
e 66 81
e 67 74
e 67 75
e 67 77
e 67 80
e 67 82
e 67 85
e 67 86
e 67 89
e 67 90
e 68 69
e 68 70
e 68 79
e 68 83
e 68 85
e 68 88
e 69 72
e 69 76
e 69 77
e 69 79
e 69 84
e 70 71
e 70 76
e 70 79
e 70 82
e 70 84
e 70 88
e 70 90
e 71 75
e 71 84
e 72 82
e 72 89
e 72 90
e 73 75
e 73 83
e 73 84
e 73 85
e 73 89
e 74 83
e 74 88
e 75 77
e 75 78
e 75 83
e 75 84
e 75 86
e 75 87
e 76 78
e 76 83
e 76 85
e 76 88
e 77 79
e 77 82
e 77 83
e 77 89
e 78 83
e 78 87
e 79 88
e 80 84
e 80 85
e 80 86
e 80 88
e 81 84
e 81 86
e 82 83
e 83 87
e 83 89
e 88 89
e 89 90
